certificates/rado_a13_c84_N55.drat
-48 6 -55 0
-49 -55 0
d -6 -49 -55 0
-3 -50 -51 -54 -55 0
-48 -54 -55 0
-51 -54 -55 0
d -3 -50 -51 -54 -55 0
8 -1 -5 51 9 0
-54 -55 0
d -48 -54 -55 0
6 -55 0
d -48 6 -55 0
-48 -55 0
-55 0
48 -6 0
-6 0
12 0
49 0
-48 0
3 0
7 0
54 0
42 0
-10 0
-4 0
-5 0
-14 0
-52 0
-19 0
0
